files/upTests/set-of-tuples2/0001.eprime.solution
language ESSENCE' 1.0
$ minion Nodes: 30
$ minion TotalTime: 0.003537
$ Savile Row TotalTime: 0.365
letting x_ExplicitVarSize_tuple2_tuple3 be [6, 6, 6, 6, 6, 6, 6, 7]
letting x_ExplicitVarSize_tuple1 be [0, 0, 0, 0, 0, 0, 1, 1]
letting x_ExplicitVarSize_tuple2_tuple2 be [4, 4, 4, 4, 4, 4, 4, 4]
letting x_ExplicitVarSize_tuple2_tuple1 be [2, 2, 2, 2, 2, 2, 2, 2]
